# ==============================
#         Datti - V3
#      Ricerca operativa
#        Solda' Matteo
#           (2022)
# ==============================

### INSIEMI ###
set Giorni := lunedi martedi mercoledi giovedi venerdi sabato domenica;
set Fornitori := interna bianca rossa verde;
set Tipo := trasporto emergenza;